solution status: optimal solution found
objective value:                     166740.710178226
d11(0,0)                                            1 	(obj:0)
d11(1,1)                                            1 	(obj:0)
d11(1,2)                                            1 	(obj:0)
d11(1,3)                                            1 	(obj:0)
d11(2,4)                                            1 	(obj:0)
d11(2,5)                                            1 	(obj:0)
d11(2,7)                                            1 	(obj:0)
d11(2,8)                                            1 	(obj:0)
d11(2,10)                                           1 	(obj:0)
d11(3,13)                                           1 	(obj:0)
d11(3,14)                                           1 	(obj:0)
d11(3,16)                                           1 	(obj:0)
d11(3,17)                                           1 	(obj:0)
d11(3,19)                                           1 	(obj:0)
d11(3,20)                                           1 	(obj:0)
d11(3,22)                                           1 	(obj:0)
d11(3,23)                                           1 	(obj:0)
d11(3,25)                                           1 	(obj:0)
d11(3,26)                                           1 	(obj:0)
d11(3,28)                                           1 	(obj:0)
d11(3,29)                                           1 	(obj:0)
d11(3,31)                                           1 	(obj:0)
d11(3,34)                                           1 	(obj:0)
d11(3,37)                                           1 	(obj:0)
d11(3,38)                                           1 	(obj:0)
d11(4,40)                                           1 	(obj:0)
d11(4,41)                                           1 	(obj:0)
d11(4,43)                                           1 	(obj:0)
d11(4,46)                                           1 	(obj:0)
d11(4,47)                                           1 	(obj:0)
d11(4,49)                                           1 	(obj:0)
d11(4,50)                                           1 	(obj:0)
d11(4,52)                                           1 	(obj:0)
d11(4,55)                                           1 	(obj:0)
d11(4,56)                                           1 	(obj:0)
d11(4,58)                                           1 	(obj:0)
d11(4,59)                                           1 	(obj:0)
d11(4,61)                                           1 	(obj:0)
d11(4,62)                                           1 	(obj:0)
d11(4,64)                                           1 	(obj:0)
d11(4,65)                                           1 	(obj:0)
d11(4,67)                                           1 	(obj:0)
d11(4,68)                                           1 	(obj:0)
d11(4,70)                                           1 	(obj:0)
d11(4,71)                                           1 	(obj:0)
d11(4,73)                                           1 	(obj:0)
d11(4,76)                                           1 	(obj:0)
d11(4,79)                                           1 	(obj:0)
d11(4,82)                                           1 	(obj:0)
d11(4,83)                                           1 	(obj:0)
d11(4,85)                                           1 	(obj:0)
d11(4,86)                                           1 	(obj:0)
d11(4,88)                                           1 	(obj:0)
d11(4,89)                                           1 	(obj:0)
d11(4,91)                                           1 	(obj:0)
d11(4,92)                                           1 	(obj:0)
d11(4,94)                                           1 	(obj:0)
d11(4,95)                                           1 	(obj:0)
d11(4,97)                                           1 	(obj:0)
d11(4,98)                                           1 	(obj:0)
d11(4,100)                                          1 	(obj:0)
d11(4,101)                                          1 	(obj:0)
d11(4,103)                                          1 	(obj:0)
d11(4,104)                                          1 	(obj:0)
d11(4,106)                                          1 	(obj:0)
d11(4,107)                                          1 	(obj:0)
d11(4,109)                                          1 	(obj:0)
d11(4,110)                                          1 	(obj:0)
d11(4,112)                                          1 	(obj:0)
d11(4,113)                                          1 	(obj:0)
d11(4,115)                                          1 	(obj:0)
d11(4,116)                                          1 	(obj:0)
d11(4,118)                                          1 	(obj:0)
d11(4,119)                                          1 	(obj:0)
d12(2,6)                                            1 	(obj:0)
d12(2,9)                                            1 	(obj:0)
d12(2,12)                                           1 	(obj:0)
d12(3,15)                                           1 	(obj:0)
d12(3,18)                                           1 	(obj:0)
d12(3,21)                                           1 	(obj:0)
d12(3,24)                                           1 	(obj:0)
d12(3,27)                                           1 	(obj:0)
d12(3,30)                                           1 	(obj:0)
d12(3,33)                                           1 	(obj:0)
d12(3,36)                                           1 	(obj:0)
d12(3,39)                                           1 	(obj:0)
d12(4,42)                                           1 	(obj:0)
d12(4,45)                                           1 	(obj:0)
d12(4,48)                                           1 	(obj:0)
d12(4,51)                                           1 	(obj:0)
d12(4,54)                                           1 	(obj:0)
d12(4,57)                                           1 	(obj:0)
d12(4,60)                                           1 	(obj:0)
d12(4,63)                                           1 	(obj:0)
d12(4,66)                                           1 	(obj:0)
d12(4,69)                                           1 	(obj:0)
d12(4,72)                                           1 	(obj:0)
d12(4,75)                                           1 	(obj:0)
d12(4,78)                                           1 	(obj:0)
d12(4,81)                                           1 	(obj:0)
d12(4,84)                                           1 	(obj:0)
d12(4,87)                                           1 	(obj:0)
d12(4,90)                                           1 	(obj:0)
d12(4,93)                                           1 	(obj:0)
d12(4,96)                                           1 	(obj:0)
d12(4,99)                                           1 	(obj:0)
d12(4,102)                                          1 	(obj:0)
d12(4,105)                                          1 	(obj:0)
d12(4,108)                                          1 	(obj:0)
d12(4,111)                                          1 	(obj:0)
d12(4,114)                                          1 	(obj:0)
d12(4,117)                                          1 	(obj:0)
d12(4,120)                                          1 	(obj:0)
d21(3,13)                                           1 	(obj:0)
d21(3,14)                                           1 	(obj:0)
d21(3,16)                                           1 	(obj:0)
d21(3,22)                                           1 	(obj:0)
d21(4,40)                                           1 	(obj:0)
d21(4,41)                                           1 	(obj:0)
d21(4,42)                                           1 	(obj:0)
d21(4,43)                                           1 	(obj:0)
d21(4,44)                                           1 	(obj:0)
d21(4,45)                                           1 	(obj:0)
d21(4,46)                                           1 	(obj:0)
d21(4,47)                                           1 	(obj:0)
d21(4,48)                                           1 	(obj:0)
d21(4,49)                                           1 	(obj:0)
d21(4,50)                                           1 	(obj:0)
d21(4,51)                                           1 	(obj:0)
d21(4,52)                                           1 	(obj:0)
d21(4,53)                                           1 	(obj:0)
d21(4,55)                                           1 	(obj:0)
d21(4,58)                                           1 	(obj:0)
d21(4,59)                                           1 	(obj:0)
d21(4,60)                                           1 	(obj:0)
d21(4,61)                                           1 	(obj:0)
d21(4,64)                                           1 	(obj:0)
d21(4,67)                                           1 	(obj:0)
d21(4,68)                                           1 	(obj:0)
d21(4,69)                                           1 	(obj:0)
d21(4,70)                                           1 	(obj:0)
d21(4,71)                                           1 	(obj:0)
d21(4,73)                                           1 	(obj:0)
d21(4,74)                                           1 	(obj:0)
d21(4,76)                                           1 	(obj:0)
d21(4,77)                                           1 	(obj:0)
d21(4,79)                                           1 	(obj:0)
d21(4,85)                                           1 	(obj:0)
d21(4,94)                                           1 	(obj:0)
d21(4,95)                                           1 	(obj:0)
d21(4,97)                                           1 	(obj:0)
d21(4,103)                                          1 	(obj:0)
y2(4,102)                            960.592982999987 	(obj:0)
y2(4,105)                            960.592982999987 	(obj:0)
y2(4,108)                            960.592982999987 	(obj:0)
y2(4,111)                            960.592982999987 	(obj:0)
y2(4,114)                            960.592982999987 	(obj:0)
y2(4,117)                            960.592982999987 	(obj:0)
y2(4,120)                            960.592982999987 	(obj:0)
STE(1,1)                             7151.43666614901 	(obj:0)
STE(0,0)                                        12600 	(obj:0)
STE(1,2)                             8148.20266948227 	(obj:0)
STE(1,3)                             9365.65487281565 	(obj:0)
STE(2,4)                             5146.67066281572 	(obj:0)
STE(2,5)                             6143.43666614901 	(obj:0)
STE(2,6)                             7055.99999999906 	(obj:0)
STE(2,7)                             6143.43666614898 	(obj:0)
STE(2,8)                             7140.20266948227 	(obj:0)
STE(2,9)                             8052.76600333231 	(obj:0)
STE(2,10)                            7360.88886948236 	(obj:0)
STE(2,11)                            8357.65487281565 	(obj:0)
STE(2,12)                            9270.21820666569 	(obj:0)
STE(3,13)                            3141.90465948237 	(obj:0)
STE(3,14)                            4138.67066281566 	(obj:0)
STE(3,15)                            5051.23399666571 	(obj:0)
STE(3,16)                            4138.67066281566 	(obj:0)
STE(3,17)                            5135.43666614895 	(obj:0)
STE(3,18)                              6047.999999999 	(obj:0)
STE(3,19)                             5051.2339966657 	(obj:0)
STE(3,20)                            6047.99999999906 	(obj:0)
STE(3,21)                            6960.56333384904 	(obj:0)
STE(3,22)                            4138.67066281563 	(obj:0)
STE(3,23)                            5135.43666614898 	(obj:0)
STE(3,24)                            6047.99999999897 	(obj:0)
STE(3,25)                            5135.43666614892 	(obj:0)
STE(3,26)                            6132.20266948221 	(obj:0)
STE(3,27)                            7044.76600333226 	(obj:0)
STE(3,28)                            6047.99999999896 	(obj:0)
STE(3,29)                            7044.76600333231 	(obj:0)
STE(3,30)                             7957.3293371823 	(obj:0)
STE(3,31)                            5356.12286614901 	(obj:0)
STE(3,32)                            6352.88886948236 	(obj:0)
STE(3,33)                            7265.45220333235 	(obj:0)
STE(3,34)                             6352.8888694823 	(obj:0)
STE(3,35)                            7349.65487281565 	(obj:0)
STE(3,36)                            8262.21820666564 	(obj:0)
STE(3,37)                            7265.45220333234 	(obj:0)
STE(3,38)                            8262.21820666575 	(obj:0)
STE(3,39)                            9174.78154051568 	(obj:0)
STE(4,40)                            1137.13865614902 	(obj:0)
STE(4,41)                            2133.90465948237 	(obj:0)
STE(4,42)                            3046.46799333236 	(obj:0)
STE(4,43)                            2133.90465948231 	(obj:0)
STE(4,44)                            3130.67066281566 	(obj:0)
STE(4,45)                            4043.23399666565 	(obj:0)
STE(4,46)                            3046.46799333236 	(obj:0)
STE(4,47)                            4043.23399666571 	(obj:0)
STE(4,48)                             4955.7973305157 	(obj:0)
STE(4,49)                            2133.90465948231 	(obj:0)
STE(4,50)                             3130.6706628156 	(obj:0)
STE(4,51)                            4043.23399666565 	(obj:0)
STE(4,52)                             3130.6706628156 	(obj:0)
STE(4,53)                            4127.43666614895 	(obj:0)
STE(4,54)                            5039.99999999894 	(obj:0)
STE(4,55)                            4043.23399666565 	(obj:0)
STE(4,56)                                        5040 	(obj:0)
STE(4,57)                            5952.56333384899 	(obj:0)
STE(4,58)                            3046.46799333236 	(obj:0)
STE(4,59)                            4043.23399666565 	(obj:0)
STE(4,60)                            4955.79733051569 	(obj:0)
STE(4,61)                             4043.2339966657 	(obj:0)
STE(4,62)                            5039.99999999906 	(obj:0)
STE(4,63)                            5952.56333384904 	(obj:0)
STE(4,64)                            4955.79733051569 	(obj:0)
STE(4,65)                            5952.56333384904 	(obj:0)
STE(4,66)                            6865.12666769903 	(obj:0)
STE(4,67)                            2133.90465948228 	(obj:0)
STE(4,68)                            3130.67066281563 	(obj:0)
STE(4,69)                            4043.23399666562 	(obj:0)
STE(4,70)                            3130.67066281563 	(obj:0)
STE(4,71)                            4127.43666614898 	(obj:0)
STE(4,72)                            5039.99999999897 	(obj:0)
STE(4,73)                            4043.23399666562 	(obj:0)
STE(4,74)                            5039.99999999897 	(obj:0)
STE(4,75)                            5952.56333384895 	(obj:0)
STE(4,76)                            3130.67066281557 	(obj:0)
STE(4,77)                            4127.43666614892 	(obj:0)
STE(4,78)                            5039.99999999891 	(obj:0)
STE(4,79)                            4127.43666614886 	(obj:0)
STE(4,80)                            5124.20266948221 	(obj:0)
STE(4,81)                             6036.7660033322 	(obj:0)
STE(4,82)                            5039.99999999891 	(obj:0)
STE(4,83)                            6036.76600333226 	(obj:0)
STE(4,84)                            6949.32933718225 	(obj:0)
STE(4,85)                            4043.23399666561 	(obj:0)
STE(4,86)                            5039.99999999896 	(obj:0)
STE(4,87)                            5952.56333384895 	(obj:0)
STE(4,88)                            5039.99999999896 	(obj:0)
STE(4,89)                            6036.76600333231 	(obj:0)
STE(4,90)                             6949.3293371823 	(obj:0)
STE(4,91)                            5952.56333384895 	(obj:0)
STE(4,92)                             6949.3293371823 	(obj:0)
STE(4,93)                            7861.89267103229 	(obj:0)
STE(4,94)                            3351.35686281566 	(obj:0)
STE(4,95)                            4348.12286614901 	(obj:0)
STE(4,96)                              5260.686199999 	(obj:0)
STE(4,97)                            4348.12286614901 	(obj:0)
STE(4,98)                            5344.88886948236 	(obj:0)
STE(4,99)                            6257.45220333235 	(obj:0)
STE(4,100)                             5260.686199999 	(obj:0)
STE(4,101)                           6257.45220333235 	(obj:0)
STE(4,102)                           7170.01553718233 	(obj:0)
STE(4,103)                           4348.12286614895 	(obj:0)
STE(4,104)                           5344.88886948224 	(obj:0)
STE(4,105)                           6257.45220333229 	(obj:0)
STE(4,106)                            5344.8888694823 	(obj:0)
STE(4,107)                           6341.65487281565 	(obj:0)
STE(4,108)                           7254.21820666564 	(obj:0)
STE(4,109)                           6257.45220333229 	(obj:0)
STE(4,110)                           7254.21820666564 	(obj:0)
STE(4,111)                           8166.78154051562 	(obj:0)
STE(4,112)                           5260.68619999899 	(obj:0)
STE(4,113)                           6257.45220333234 	(obj:0)
STE(4,114)                           7170.01553718233 	(obj:0)
STE(4,115)                            6257.4522033324 	(obj:0)
STE(4,116)                           7254.21820666575 	(obj:0)
STE(4,117)                           8166.78154051574 	(obj:0)
STE(4,118)                           7170.01553718233 	(obj:0)
STE(4,119)                           8166.78154051562 	(obj:0)
STE(4,120)                           9079.34487436567 	(obj:0)
y1(4,100)                            897.089403000015 	(obj:0)
y1(4,103)                            897.089403000015 	(obj:0)
y1(4,106)                            897.089403000015 	(obj:0)
y1(4,109)                            897.089403000015 	(obj:0)
y1(4,112)                            897.089403000015 	(obj:0)
y1(4,115)                            897.089403000015 	(obj:0)
y1(4,118)                            897.089403000015 	(obj:0)
WB(3)                                 3399.3204933139 	(obj:0)
AVE(3)                                3399.3204933139 	(obj:0)
AVE(4)                               3353.21046544222 	(obj:0)
y2(4,99)                             960.592982999987 	(obj:0)
WG(4)                                3353.21046544222 	(obj:10)
BG(1)                                6540.52101782232 	(obj:10)
BG(2)                                3377.84999999995 	(obj:10)
BG(3)                                         3377.85 	(obj:10)
BG(4)                                24.6395345577802 	(obj:10)
WB(1)                                3134.60043707458 	(obj:0)
AVE(1)                               3134.60043707458 	(obj:0)
WB(2)                                3326.45170866643 	(obj:0)
AVE(2)                               3326.45170866643 	(obj:0)
y1(1,1)                              3996.50700046589 	(obj:0)
y1(1,2)                              3099.41759746596 	(obj:0)
y1(1,3)                              2003.71061446592 	(obj:0)
y1(2,4)                              897.089402999962 	(obj:0)
y1(2,7)                              897.089402999962 	(obj:0)
y1(2,10)                             897.089402999962 	(obj:0)
y1(3,13)                             897.089403000015 	(obj:0)
y1(3,16)                             897.089403000015 	(obj:0)
y1(3,19)                             897.089403000015 	(obj:0)
y1(3,22)                             897.089403000015 	(obj:0)
y1(3,25)                             897.089403000015 	(obj:0)
y1(3,28)                             897.089403000015 	(obj:0)
y1(3,31)                             897.089403000015 	(obj:0)
y1(3,34)                             897.089403000015 	(obj:0)
y1(3,37)                             897.089403000015 	(obj:0)
y1(4,40)                             897.089403000015 	(obj:0)
y1(4,43)                             897.089403000015 	(obj:0)
y1(4,46)                             897.089403000015 	(obj:0)
y1(4,49)                             897.089403000015 	(obj:0)
y1(4,52)                             897.089403000015 	(obj:0)
y1(4,55)                             897.089403000015 	(obj:0)
y1(4,58)                             897.089403000015 	(obj:0)
y1(4,61)                             897.089403000015 	(obj:0)
y1(4,64)                             897.089403000015 	(obj:0)
y1(4,67)                             897.089403000015 	(obj:0)
y1(4,70)                             897.089403000015 	(obj:0)
y1(4,73)                             897.089403000015 	(obj:0)
y1(4,76)                             897.089403000015 	(obj:0)
y1(4,79)                             897.089403000015 	(obj:0)
y1(4,82)                             897.089403000015 	(obj:0)
y1(4,85)                             897.089403000015 	(obj:0)
y1(4,88)                             897.089403000015 	(obj:0)
y1(4,91)                             897.089403000015 	(obj:0)
y1(4,94)                             897.089403000015 	(obj:0)
y1(4,97)                             897.089403000015 	(obj:0)
y2(2,6)                              960.592983000043 	(obj:0)
y2(2,9)                              960.592983000043 	(obj:0)
y2(2,12)                             960.592983000043 	(obj:0)
y2(3,15)                             960.592982999986 	(obj:0)
y2(3,18)                             960.592982999986 	(obj:0)
y2(3,21)                             960.592982999986 	(obj:0)
y2(3,24)                             960.592982999986 	(obj:0)
y2(3,27)                             960.592982999986 	(obj:0)
y2(3,30)                             960.592982999986 	(obj:0)
y2(3,33)                             960.592982999986 	(obj:0)
y2(3,36)                             960.592982999986 	(obj:0)
y2(3,39)                             960.592982999986 	(obj:0)
y2(4,42)                             960.592982999987 	(obj:0)
y2(4,45)                             960.592982999987 	(obj:0)
y2(4,48)                             960.592982999987 	(obj:0)
y2(4,51)                             960.592982999987 	(obj:0)
y2(4,54)                             960.592982999987 	(obj:0)
y2(4,57)                             960.592982999987 	(obj:0)
y2(4,60)                             960.592982999987 	(obj:0)
y2(4,63)                             960.592982999987 	(obj:0)
y2(4,66)                             960.592982999987 	(obj:0)
y2(4,69)                             960.592982999987 	(obj:0)
y2(4,72)                             960.592982999987 	(obj:0)
y2(4,75)                             960.592982999987 	(obj:0)
y2(4,78)                             960.592982999987 	(obj:0)
y2(4,81)                             960.592982999987 	(obj:0)
y2(4,84)                             960.592982999987 	(obj:0)
y2(4,87)                             960.592982999987 	(obj:0)
y2(4,90)                             960.592982999987 	(obj:0)
y2(4,93)                             960.592982999987 	(obj:0)
y2(4,96)                             960.592982999987 	(obj:0)
